set P :=
1 2 3 4 5 6 7 8 9 10 11 12 13 14 15 16 17 18 19 20 21 22 23 24 25 26 27 28 29 30 31 32 33 34 35 36 37 38 39 40 41 42 43 44 45 46 47 48 49 50 51 52 53 54 55 56 57 58 59 60 61 62 63 64 65 66 67 68 69 70 71 72 73 74 75 76 77 78 79 80 81 82 83 84 85 86 87 88 89 90 91 92 93 94 95 96 97 98 99 100 101 102 103 104 105 106 107 108 109 110 111 112 113 114 115 116 117 118 119 120 121 122 123 124 125 126 127 128 129 130 131 132 133 134 135 136 137 138 139 140 141 142 143 144 145 146 147 148 149 150 151 152 153 154 155 156 157 158 159 160 161 162 163 164 165 166 167 168 169 170 171 172 173 174 175 176 177 178 179 180 181 182 183 184 185 186 187 188 189 190 191 192 193 194 195 196 197 198 199 200 201 202 203 204 205 206 207 208 209 210 211 212 213 214 215 216 217 218 219 220 221 222 223 224 225 226 227 228 229 230 231 232 233 234 235 236 237 238 239 240 241 242 243 244 245 246 247 248 249 250 251 252 253 254 255 256 257 258 259 260 261 262 263 264 265 266 267 268 269 270 271 272 273 274 275 276 277 278 279 280 281 282 283 284 285 286 287 288 289 290 291 292 293 294 295 296 297 298 299 300 301 302 303 304 305 306 307 308 309 310 311 312 313 314 315 316 317 318 319 320 321 322 323 324 325 326 327 328 329 330 331 332 333 334 335 336 337 338 339 340 341 342 343 344 345 346 347 348 349 350 351 352 353 354 355 356 357 358 359 360 361 362 363 364 365 366 367 368 369 370 371 372 373 374 375 376 377 378 379 380 381 382 383 384 385 386 387 388 389 390 391 392 393 394 395 396 397 398 399 400 401 402 403 404 405 406 407 408 409 410 411 412 413 414 415 416 417 418 419 420 421 422 423 424 425 426 427 428 429 430 431 432 433 434 435 436 437 438 439 440 441 442 443 444 445 446 447 448 449 450 451 452 453 454 455 456 457 458 459 460 461 462 463 464 465 466 467 468 469 470 471 472 473 474 475 476 477 478 479 480 481 482 483 484 485 486 487 488 489 490 491 492 493 494 495 496 497 498 499 500 501 502 503 504 505 506 507 508 509 510 511 512 513 514 515 516 517 518 519 520 521 522 523 524 525 526 527 528 529 530 531 532 533 534 535 536 537 538 539 540 541 542 543 544 545 546 547 548 549 550 551 552 553 554 555 556 557 558 559 560 561 562 563 564 565 566 567 568 569 570 571 572 573 574 575 576 577 578 579 580 581 582 583 584 585 586 587 588 589 590 591 592 593 594 595 596 597 598 599 600 601 602 603 604 605 606 607 608 609 610 611 612 613 614 615 616 617 618 619 620 621 622 623 624 625 626 627 628 629 630 631 632 633 634 635 636 637 638 639 640 641 642 643 644 645 646 647 648 649 650 651 652 653 654 655 656 657 658 659 660 661 662 663 664 665 666 667 668 669 670 671 672 673 674 675 676 677 678 679 680 681 682 683 684 685 686 687 688 689 690 691 692 693 694 695 696 697 698 699 700 701 702 703 704 705 706 707 708 709 710 711 712 713 714 715 716 717 718 719 720 721 722 723 724 725 726 727 728 729 730 731 732 733 734 735 736 737 738 739 740 741 742 743 744 745 746 747 748 749 750 751 752 753 754 755 756 757 758 759 760 761 762 763 764 765 766 767 768 769 770 771 772 773 774 775 776 777 778 779 780 781 782 783 784 785 786 787 788 789 790 791 792 793 794 795 796 797 798 799 800 801 802 803 804 805 806 807 808 809 810 811 812 813 814 815 816 817 818 819 820 821 822 823 824 825 826 827 828 829 830 831 832 833 834 835 836 837 838 839 840 841 842 843 844 845 846 847 848 849 850 851 852 853 854 855 856 857 858 859 860 861 862 863 864 865 866 867 868 869 870 871 872 873 874 875 876 877 878 879 880 881 882 883 884 885 886 887 888 889 890 891 892 893 894 895 896 897 898 899 900 901 902 903 904 905 906 907 908 909 910 911 912 913 914 915 916 917 918 919 920 921 922 923 924 925 926 927 928 929 930 931 932 933 934 935 936 937 938 939 940 941 942 943 944 945 946 947 948 949 950 951 952 953 954 955 956 957 958 959 960 961 962 963 964 965 966 967 968 969 970 971 972 973 974 975 976 977 978 979 980 981 982 983 984 985 986 987 988 989 990 991 992 993 994 995 996 997 998 999 1000 1001 1002 1003 1004 1005 1006 1007 1008 1009 1010 1011 1012 1013 1014 1015 1016 1017 1018 1019 1020 1021 1022 1023 1024 1025 1026 1027 1028 1029 1030 1031 1032 1033 1034 1035 1036 1037 1038 1039 1040 1041 1042 1043 1044 1045 1046 1047 1048 1049 1050 1051 1052 1053 1054 1055 1056 1057 1058 1059 1060 1061 1062 1063 1064 1065 1066 1067 1068 1069 1070 1071 1072 1073 1074 1075 1076 1077 1078 1079 1080 1081 1082 1083 1084 1085 1086 1087 1088 1089 1090 1091 1092 1093 1094 1095 1096 1097 1098 1099 1100 1101 1102 1103 1104 1105 1106 1107 1108 1109 1110 1111 1112 1113 1114 1115 1116 1117 1118 1119 1120 1121 1122 1123 1124 1125 1126 1127 1128 1129 1130 1131 1132 1133 1134 1135 1136 1137 1138 1139 1140 1141 1142 1143 1144 1145 1146 1147 1148 1149 1150 1151 1152 1153 1154 1155
;

param: WG lp wp hp :=
   1 500.0 10.3 10.3 11.5
   2 500.0 10.3 10.3 11.5
   3 500.0 10.3 10.3 11.5
   4 500.0 10.3 10.3 11.5
   5 500.0 10.3 10.3 11.5
   6 500.0 10.3 10.3 11.5
   7 500.0 10.3 10.3 11.5
   8 500.0 10.3 10.3 11.5
   9 500.0 10.3 10.3 11.5
   10 500.0 10.3 10.3 11.5
   11 500.0 10.3 10.3 11.5
   12 500.0 10.3 10.3 11.5
   13 500.0 10.3 10.3 11.5
   14 500.0 10.3 10.3 11.5
   15 500.0 10.3 10.3 11.5
   16 500.0 10.3 10.3 11.5
   17 500.0 10.3 10.3 11.5
   18 500.0 10.3 10.3 11.5
   19 500.0 10.3 10.3 11.5
   20 500.0 10.3 10.3 11.5
   21 500.0 10.3 10.3 11.5
   22 500.0 10.3 10.3 11.5
   23 500.0 10.3 10.3 11.5
   24 500.0 10.3 10.3 11.5
   25 500.0 10.3 10.3 11.5
   26 500.0 10.3 10.3 11.5
   27 500.0 10.3 10.3 11.5
   28 500.0 10.3 10.3 11.5
   29 500.0 10.3 10.3 11.5
   30 500.0 10.3 10.3 11.5
   31 500.0 10.3 10.3 11.5
   32 500.0 10.3 10.3 11.5
   33 500.0 10.3 10.3 11.5
   34 500.0 10.3 10.3 11.5
   35 500.0 10.3 10.3 11.5
   36 500.0 10.3 10.3 11.5
   37 500.0 10.3 10.3 11.5
   38 500.0 10.3 10.3 11.5
   39 500.0 10.3 10.3 11.5
   40 500.0 10.3 10.3 11.5
   41 500.0 10.3 10.3 11.5
   42 500.0 10.3 10.3 11.5
   43 500.0 10.3 10.3 11.5
   44 500.0 10.3 10.3 11.5
   45 500.0 10.3 10.3 11.5
   46 500.0 10.3 10.3 11.5
   47 500.0 10.3 10.3 11.5
   48 500.0 10.3 10.3 11.5
   49 220.0 18.5 15.0 5.0
   50 220.0 18.5 15.0 5.0
   51 220.0 18.5 15.0 5.0
   52 220.0 18.5 15.0 5.0
   53 220.0 18.5 15.0 5.0
   54 220.0 18.5 15.0 5.0
   55 220.0 18.5 15.0 5.0
   56 220.0 18.5 15.0 5.0
   57 220.0 18.5 15.0 5.0
   58 220.0 18.5 15.0 5.0
   59 220.0 18.5 15.0 5.0
   60 220.0 18.5 15.0 5.0
   61 220.0 18.5 15.0 5.0
   62 220.0 18.5 15.0 5.0
   63 220.0 18.5 15.0 5.0
   64 220.0 18.5 15.0 5.0
   65 220.0 18.5 15.0 5.0
   66 220.0 18.5 15.0 5.0
   67 220.0 18.5 15.0 5.0
   68 220.0 18.5 15.0 5.0
   69 220.0 18.5 15.0 5.0
   70 220.0 18.5 15.0 5.0
   71 220.0 18.5 15.0 5.0
   72 220.0 18.5 15.0 5.0
   73 220.0 18.5 15.0 5.0
   74 220.0 18.5 15.0 5.0
   75 220.0 18.5 15.0 5.0
   76 220.0 18.5 15.0 5.0
   77 220.0 18.5 15.0 5.0
   78 220.0 18.5 15.0 5.0
   79 220.0 18.5 15.0 5.0
   80 220.0 18.5 15.0 5.0
   81 220.0 18.5 15.0 5.0
   82 220.0 18.5 15.0 5.0
   83 220.0 18.5 15.0 5.0
   84 220.0 18.5 15.0 5.0
   85 220.0 18.5 15.0 5.0
   86 220.0 18.5 15.0 5.0
   87 220.0 18.5 15.0 5.0
   88 220.0 18.5 15.0 5.0
   89 220.0 18.5 15.0 5.0
   90 220.0 18.5 15.0 5.0
   91 220.0 18.5 15.0 5.0
   92 220.0 18.5 15.0 5.0
   93 220.0 18.5 15.0 5.0
   94 220.0 18.5 15.0 5.0
   95 220.0 18.5 15.0 5.0
   96 220.0 18.5 15.0 5.0
   97 220.0 18.5 15.0 5.0
   98 220.0 18.5 15.0 5.0
   99 220.0 18.5 15.0 5.0
   100 220.0 18.5 15.0 5.0
   101 220.0 18.5 15.0 5.0
   102 220.0 18.5 15.0 5.0
   103 220.0 18.5 15.0 5.0
   104 220.0 18.5 15.0 5.0
   105 220.0 18.5 15.0 5.0
   106 220.0 18.5 15.0 5.0
   107 220.0 18.5 15.0 5.0
   108 220.0 18.5 15.0 5.0
   109 220.0 18.5 15.0 5.0
   110 220.0 18.5 15.0 5.0
   111 220.0 18.5 15.0 5.0
   112 220.0 18.5 15.0 5.0
   113 220.0 18.5 15.0 5.0
   114 220.0 18.5 15.0 5.0
   115 220.0 18.5 15.0 5.0
   116 220.0 18.5 15.0 5.0
   117 220.0 18.5 15.0 5.0
   118 220.0 18.5 15.0 5.0
   119 220.0 18.5 15.0 5.0
   120 220.0 18.5 15.0 5.0
   121 220.0 18.5 15.0 5.0
   122 220.0 18.5 15.0 5.0
   123 220.0 18.5 15.0 5.0
   124 220.0 18.5 15.0 5.0
   125 220.0 18.5 15.0 5.0
   126 220.0 18.5 15.0 5.0
   127 220.0 18.5 15.0 5.0
   128 220.0 18.5 15.0 5.0
   129 220.0 18.5 15.0 5.0
   130 220.0 18.5 15.0 5.0
   131 220.0 18.5 15.0 5.0
   132 220.0 18.5 15.0 5.0
   133 220.0 18.5 15.0 5.0
   134 220.0 18.5 15.0 5.0
   135 220.0 18.5 15.0 5.0
   136 220.0 18.5 15.0 5.0
   137 220.0 18.5 15.0 5.0
   138 220.0 18.5 15.0 5.0
   139 220.0 18.5 15.0 5.0
   140 220.0 18.5 15.0 5.0
   141 220.0 18.5 15.0 5.0
   142 220.0 18.5 15.0 5.0
   143 220.0 18.5 15.0 5.0
   144 220.0 18.5 15.0 5.0
   145 220.0 18.5 15.0 5.0
   146 220.0 18.5 15.0 5.0
   147 220.0 18.5 15.0 5.0
   148 220.0 18.5 15.0 5.0
   149 220.0 18.5 15.0 5.0
   150 220.0 18.5 15.0 5.0
   151 220.0 18.5 15.0 5.0
   152 220.0 18.5 15.0 5.0
   153 220.0 18.5 15.0 5.0
   154 200.0 15.0 5.0 8.0
   155 200.0 15.0 5.0 8.0
   156 200.0 15.0 5.0 8.0
   157 200.0 15.0 5.0 8.0
   158 200.0 15.0 5.0 8.0
   159 200.0 15.0 5.0 8.0
   160 200.0 15.0 5.0 8.0
   161 200.0 15.0 5.0 8.0
   162 200.0 15.0 5.0 8.0
   163 200.0 15.0 5.0 8.0
   164 200.0 15.0 5.0 8.0
   165 200.0 15.0 5.0 8.0
   166 200.0 15.0 5.0 8.0
   167 200.0 15.0 5.0 8.0
   168 200.0 15.0 5.0 8.0
   169 200.0 15.0 5.0 8.0
   170 200.0 15.0 5.0 8.0
   171 200.0 15.0 5.0 8.0
   172 200.0 15.0 5.0 8.0
   173 200.0 15.0 5.0 8.0
   174 200.0 15.0 5.0 8.0
   175 200.0 15.0 5.0 8.0
   176 200.0 15.0 5.0 8.0
   177 200.0 15.0 5.0 8.0
   178 200.0 15.0 5.0 8.0
   179 200.0 15.0 5.0 8.0
   180 200.0 15.0 5.0 8.0
   181 200.0 15.0 5.0 8.0
   182 200.0 15.0 5.0 8.0
   183 200.0 15.0 5.0 8.0
   184 500.0 10.0 10.0 11.5
   185 500.0 10.0 10.0 11.5
   186 500.0 10.0 10.0 11.5
   187 500.0 10.0 10.0 11.5
   188 500.0 10.0 10.0 11.5
   189 500.0 10.0 10.0 11.5
   190 500.0 10.0 10.0 11.5
   191 500.0 10.0 10.0 11.5
   192 500.0 10.0 10.0 11.5
   193 500.0 10.0 10.0 11.5
   194 500.0 10.0 10.0 11.5
   195 500.0 10.0 10.0 11.5
   196 500.0 10.0 10.0 11.5
   197 500.0 10.0 10.0 11.5
   198 500.0 10.0 10.0 11.5
   199 500.0 10.0 10.0 11.5
   200 500.0 10.0 10.0 11.5
   201 500.0 10.0 10.0 11.5
   202 500.0 10.0 10.0 11.5
   203 500.0 10.0 10.0 11.5
   204 500.0 10.0 10.0 11.5
   205 500.0 10.0 10.0 11.5
   206 500.0 10.0 10.0 11.5
   207 500.0 10.0 10.0 11.5
   208 500.0 10.0 10.0 11.5
   209 500.0 10.0 10.0 11.5
   210 500.0 10.0 10.0 11.5
   211 500.0 10.0 10.0 11.5
   212 500.0 10.0 10.0 11.5
   213 500.0 10.0 10.0 11.5
   214 500.0 10.0 10.0 11.5
   215 500.0 10.0 10.0 11.5
   216 500.0 10.0 10.0 11.5
   217 500.0 10.0 10.0 11.5
   218 500.0 10.0 10.0 11.5
   219 500.0 10.0 10.0 11.5
   220 500.0 10.0 10.0 11.5
   221 500.0 10.0 10.0 11.5
   222 500.0 10.0 10.0 11.5
   223 500.0 10.0 10.0 11.5
   224 500.0 10.0 10.0 11.5
   225 500.0 10.0 10.0 11.5
   226 500.0 10.0 10.0 11.5
   227 500.0 10.0 10.0 11.5
   228 500.0 10.0 10.0 11.5
   229 500.0 10.0 10.0 11.5
   230 500.0 10.0 10.0 11.5
   231 500.0 10.0 10.0 11.5
   232 300.0 5.0 15.0 18.0
   233 300.0 5.0 15.0 18.0
   234 300.0 5.0 15.0 18.0
   235 300.0 5.0 15.0 18.0
   236 300.0 5.0 15.0 18.0
   237 300.0 5.0 15.0 18.0
   238 300.0 5.0 15.0 18.0
   239 300.0 5.0 15.0 18.0
   240 300.0 5.0 15.0 18.0
   241 300.0 5.0 15.0 18.0
   242 300.0 5.0 15.0 18.0
   243 300.0 5.0 15.0 18.0
   244 300.0 5.0 15.0 18.0
   245 300.0 5.0 15.0 18.0
   246 300.0 5.0 15.0 18.0
   247 300.0 5.0 15.0 18.0
   248 300.0 5.0 15.0 18.0
   249 300.0 5.0 15.0 18.0
   250 300.0 5.0 15.0 18.0
   251 300.0 5.0 15.0 18.0
   252 300.0 5.0 15.0 18.0
   253 300.0 5.0 15.0 18.0
   254 300.0 5.0 15.0 18.0
   255 300.0 5.0 15.0 18.0
   256 300.0 5.0 15.0 18.0
   257 300.0 5.0 15.0 18.0
   258 300.0 5.0 15.0 18.0
   259 300.0 5.0 15.0 18.0
   260 300.0 5.0 15.0 18.0
   261 300.0 5.0 15.0 18.0
   262 300.0 5.0 15.0 18.0
   263 300.0 5.0 15.0 18.0
   264 300.0 5.0 15.0 18.0
   265 300.0 5.0 15.0 18.0
   266 300.0 5.0 15.0 18.0
   267 300.0 5.0 15.0 18.0
   268 300.0 5.0 15.0 18.0
   269 300.0 5.0 15.0 18.0
   270 300.0 5.0 15.0 18.0
   271 300.0 5.0 15.0 18.0
   272 300.0 5.0 15.0 18.0
   273 300.0 5.0 15.0 18.0
   274 300.0 5.0 15.0 18.0
   275 300.0 5.0 15.0 18.0
   276 300.0 5.0 15.0 18.0
   277 300.0 5.0 15.0 18.0
   278 300.0 5.0 15.0 18.0
   279 300.0 5.0 15.0 18.0
   280 300.0 5.0 15.0 18.0
   281 300.0 5.0 15.0 18.0
   282 300.0 5.0 15.0 18.0
   283 300.0 5.0 15.0 18.0
   284 300.0 5.0 15.0 18.0
   285 300.0 5.0 15.0 18.0
   286 300.0 5.0 15.0 18.0
   287 300.0 5.0 15.0 18.0
   288 300.0 5.0 15.0 18.0
   289 300.0 5.0 15.0 18.0
   290 300.0 5.0 15.0 18.0
   291 300.0 5.0 15.0 18.0
   292 300.0 5.0 15.0 18.0
   293 300.0 5.0 15.0 18.0
   294 300.0 5.0 15.0 18.0
   295 300.0 5.0 15.0 18.0
   296 300.0 5.0 15.0 18.0
   297 300.0 5.0 15.0 18.0
   298 300.0 5.0 15.0 18.0
   299 300.0 5.0 15.0 18.0
   300 300.0 5.0 15.0 18.0
   301 300.0 5.0 15.0 18.0
   302 300.0 5.0 15.0 18.0
   303 300.0 5.0 15.0 18.0
   304 300.0 5.0 15.0 18.0
   305 300.0 5.0 15.0 18.0
   306 300.0 5.0 15.0 18.0
   307 300.0 5.0 15.0 18.0
   308 300.0 5.0 15.0 18.0
   309 300.0 5.0 15.0 18.0
   310 300.0 5.0 15.0 18.0
   311 300.0 5.0 15.0 18.0
   312 300.0 5.0 15.0 18.0
   313 300.0 5.0 15.0 18.0
   314 300.0 5.0 15.0 18.0
   315 300.0 5.0 15.0 18.0
   316 300.0 5.0 15.0 18.0
   317 300.0 5.0 15.0 18.0
   318 300.0 5.0 15.0 18.0
   319 300.0 5.0 15.0 18.0
   320 300.0 5.0 15.0 18.0
   321 300.0 5.0 15.0 18.0
   322 300.0 5.0 15.0 18.0
   323 300.0 5.0 15.0 18.0
   324 300.0 5.0 15.0 18.0
   325 300.0 5.0 15.0 18.0
   326 300.0 5.0 15.0 18.0
   327 300.0 5.0 15.0 18.0
   328 300.0 5.0 15.0 18.0
   329 300.0 5.0 15.0 18.0
   330 300.0 5.0 15.0 18.0
   331 300.0 5.0 15.0 18.0
   332 300.0 5.0 15.0 18.0
   333 300.0 5.0 15.0 18.0
   334 300.0 5.0 15.0 18.0
   335 300.0 5.0 15.0 18.0
   336 300.0 5.0 15.0 18.0
   337 300.0 5.0 15.0 18.0
   338 300.0 5.0 15.0 18.0
   339 300.0 5.0 15.0 18.0
   340 300.0 5.0 15.0 18.0
   341 300.0 5.0 15.0 18.0
   342 300.0 5.0 15.0 18.0
   343 300.0 5.0 15.0 18.0
   344 300.0 5.0 15.0 18.0
   345 300.0 5.0 15.0 18.0
   346 300.0 5.0 15.0 18.0
   347 300.0 5.0 15.0 18.0
   348 300.0 5.0 15.0 18.0
   349 300.0 5.0 15.0 18.0
   350 300.0 5.0 15.0 18.0
   351 300.0 5.0 15.0 18.0
   352 500.0 10.0 10.0 11.5
   353 500.0 10.0 10.0 11.5
   354 500.0 10.0 10.0 11.5
   355 500.0 10.0 10.0 11.5
   356 500.0 10.0 10.0 11.5
   357 500.0 10.0 10.0 11.5
   358 500.0 10.0 10.0 11.5
   359 500.0 10.0 10.0 11.5
   360 500.0 10.0 10.0 11.5
   361 500.0 10.0 10.0 11.5
   362 500.0 10.0 10.0 11.5
   363 500.0 10.0 10.0 11.5
   364 500.0 10.0 10.0 11.5
   365 500.0 10.0 10.0 11.5
   366 500.0 10.0 10.0 11.5
   367 500.0 10.0 10.0 11.5
   368 500.0 10.0 10.0 11.5
   369 500.0 10.0 10.0 11.5
   370 500.0 10.0 10.0 11.5
   371 500.0 10.0 10.0 11.5
   372 500.0 10.0 10.0 11.5
   373 500.0 10.0 10.0 11.5
   374 500.0 10.0 10.0 11.5
   375 500.0 10.0 10.0 11.5
   376 500.0 10.0 10.0 11.5
   377 500.0 10.0 10.0 11.5
   378 500.0 10.0 10.0 11.5
   379 500.0 10.0 10.0 11.5
   380 500.0 10.0 10.0 11.5
   381 500.0 10.0 10.0 11.5
   382 500.0 10.0 10.0 11.5
   383 500.0 10.0 10.0 11.5
   384 500.0 10.0 10.0 11.5
   385 500.0 10.0 10.0 11.5
   386 500.0 10.0 10.0 11.5
   387 500.0 10.0 10.0 11.5
   388 500.0 10.0 10.0 11.5
   389 500.0 10.0 10.0 11.5
   390 500.0 10.0 10.0 11.5
   391 500.0 10.0 10.0 11.5
   392 500.0 10.0 10.0 11.5
   393 500.0 10.0 10.0 11.5
   394 500.0 10.0 10.0 11.5
   395 500.0 10.0 10.0 11.5
   396 500.0 10.0 10.0 11.5
   397 500.0 10.0 10.0 11.5
   398 500.0 10.0 10.0 11.5
   399 500.0 10.0 10.0 11.5
   400 200.0 15.0 5.0 18.0
   401 200.0 15.0 5.0 18.0
   402 200.0 15.0 5.0 18.0
   403 200.0 15.0 5.0 18.0
   404 200.0 15.0 5.0 18.0
   405 200.0 15.0 5.0 18.0
   406 200.0 15.0 5.0 18.0
   407 200.0 15.0 5.0 18.0
   408 200.0 15.0 5.0 18.0
   409 200.0 15.0 5.0 18.0
   410 200.0 15.0 5.0 18.0
   411 200.0 15.0 5.0 18.0
   412 200.0 15.0 5.0 18.0
   413 200.0 15.0 5.0 18.0
   414 200.0 15.0 5.0 18.0
   415 200.0 15.0 5.0 18.0
   416 200.0 15.0 5.0 18.0
   417 200.0 15.0 5.0 18.0
   418 200.0 15.0 5.0 18.0
   419 200.0 15.0 5.0 18.0
   420 200.0 15.0 5.0 18.0
   421 200.0 15.0 5.0 18.0
   422 200.0 15.0 5.0 18.0
   423 200.0 15.0 5.0 18.0
   424 200.0 15.0 5.0 18.0
   425 200.0 15.0 5.0 18.0
   426 200.0 15.0 5.0 18.0
   427 200.0 15.0 5.0 18.0
   428 200.0 15.0 5.0 18.0
   429 200.0 15.0 5.0 18.0
   430 200.0 15.0 5.0 18.0
   431 200.0 15.0 5.0 18.0
   432 200.0 15.0 5.0 18.0
   433 200.0 15.0 5.0 18.0
   434 200.0 15.0 5.0 18.0
   435 200.0 15.0 5.0 18.0
   436 200.0 15.0 5.0 18.0
   437 200.0 15.0 5.0 18.0
   438 200.0 15.0 5.0 18.0
   439 200.0 15.0 5.0 18.0
   440 200.0 15.0 5.0 18.0
   441 200.0 15.0 5.0 18.0
   442 200.0 15.0 5.0 18.0
   443 200.0 15.0 5.0 18.0
   444 200.0 15.0 5.0 18.0
   445 200.0 15.0 5.0 18.0
   446 200.0 15.0 5.0 18.0
   447 200.0 15.0 5.0 18.0
   448 200.0 15.0 5.0 18.0
   449 200.0 15.0 5.0 18.0
   450 200.0 15.0 5.0 18.0
   451 200.0 15.0 5.0 18.0
   452 200.0 15.0 5.0 18.0
   453 200.0 15.0 5.0 18.0
   454 200.0 15.0 5.0 18.0
   455 200.0 15.0 5.0 18.0
   456 200.0 15.0 5.0 18.0
   457 200.0 15.0 5.0 18.0
   458 200.0 15.0 5.0 18.0
   459 200.0 15.0 5.0 18.0
   460 1100.0 12.8 12.8 16.2
   461 1100.0 12.8 12.8 16.2
   462 1100.0 12.8 12.8 16.2
   463 1100.0 12.8 12.8 16.2
   464 1100.0 12.8 12.8 16.2
   465 1100.0 12.8 12.8 16.2
   466 1100.0 12.8 12.8 16.2
   467 1100.0 12.8 12.8 16.2
   468 1100.0 12.8 12.8 16.2
   469 1100.0 12.8 12.8 16.2
   470 1100.0 12.8 12.8 16.2
   471 1100.0 12.8 12.8 16.2
   472 1100.0 12.8 12.8 16.2
   473 1100.0 12.8 12.8 16.2
   474 1100.0 12.8 12.8 16.2
   475 1100.0 12.8 12.8 16.2
   476 1100.0 12.8 12.8 16.2
   477 1100.0 12.8 12.8 16.2
   478 1100.0 12.8 12.8 16.2
   479 1100.0 12.8 12.8 16.2
   480 1100.0 12.8 12.8 16.2
   481 1100.0 12.8 12.8 16.2
   482 1100.0 12.8 12.8 16.2
   483 1100.0 12.8 12.8 16.2
   484 1100.0 12.8 12.8 16.2
   485 1100.0 12.8 12.8 16.2
   486 1100.0 12.8 12.8 16.2
   487 1100.0 12.8 12.8 16.2
   488 1100.0 12.8 12.8 16.2
   489 1100.0 12.8 12.8 16.2
   490 1100.0 12.8 12.8 16.2
   491 1100.0 12.8 12.8 16.2
   492 1100.0 12.8 12.8 16.2
   493 1100.0 12.8 12.8 16.2
   494 1100.0 12.8 12.8 16.2
   495 1100.0 12.8 12.8 16.2
   496 1100.0 12.8 12.8 16.2
   497 1100.0 12.8 12.8 16.2
   498 1100.0 12.8 12.8 16.2
   499 1100.0 12.8 12.8 16.2
   500 1100.0 12.8 12.8 16.2
   501 1100.0 12.8 12.8 16.2
   502 1100.0 12.8 12.8 16.2
   503 1100.0 12.8 12.8 16.2
   504 1100.0 12.8 12.8 16.2
   505 1100.0 12.8 12.8 16.2
   506 1100.0 12.8 12.8 16.2
   507 1100.0 12.8 12.8 16.2
   508 1100.0 12.8 12.8 16.2
   509 1100.0 12.8 12.8 16.2
   510 1100.0 12.8 12.8 16.2
   511 1100.0 12.8 12.8 16.2
   512 1100.0 12.8 12.8 16.2
   513 1100.0 12.8 12.8 16.2
   514 1100.0 12.8 12.8 16.2
   515 1100.0 12.8 12.8 16.2
   516 1100.0 12.8 12.8 16.2
   517 1100.0 12.8 12.8 16.2
   518 1100.0 12.8 12.8 16.2
   519 1100.0 12.8 12.8 16.2
   520 1100.0 12.8 12.8 16.2
   521 1100.0 12.8 12.8 16.2
   522 1100.0 12.8 12.8 16.2
   523 1100.0 12.8 12.8 16.2
   524 1100.0 12.8 12.8 16.2
   525 1100.0 12.8 12.8 16.2
   526 1100.0 12.8 12.8 16.2
   527 1100.0 12.8 12.8 16.2
   528 1100.0 12.8 12.8 16.2
   529 1100.0 12.8 12.8 16.2
   530 1100.0 12.8 12.8 16.2
   531 1100.0 12.8 12.8 16.2
   532 1100.0 12.8 12.8 16.2
   533 1100.0 12.8 12.8 16.2
   534 1100.0 12.8 12.8 16.2
   535 1100.0 12.8 12.8 16.2
   536 1100.0 12.8 12.8 16.2
   537 1100.0 12.8 12.8 16.2
   538 1100.0 12.8 12.8 16.2
   539 1100.0 12.8 12.8 16.2
   540 1100.0 12.8 12.8 16.2
   541 1100.0 12.8 12.8 16.2
   542 1100.0 12.8 12.8 16.2
   543 1100.0 12.8 12.8 16.2
   544 1100.0 12.8 12.8 16.2
   545 1100.0 12.8 12.8 16.2
   546 1100.0 12.8 12.8 16.2
   547 1100.0 12.8 12.8 16.2
   548 1100.0 12.8 12.8 16.2
   549 1100.0 12.8 12.8 16.2
   550 1100.0 12.8 12.8 16.2
   551 1100.0 12.8 12.8 16.2
   552 1100.0 12.8 12.8 16.2
   553 1100.0 12.8 12.8 16.2
   554 1100.0 12.8 12.8 16.2
   555 1100.0 12.8 12.8 16.2
   556 1100.0 12.8 12.8 16.2
   557 1100.0 12.8 12.8 16.2
   558 1100.0 12.8 12.8 16.2
   559 1100.0 12.8 12.8 16.2
   560 1100.0 12.8 12.8 16.2
   561 1100.0 12.8 12.8 16.2
   562 1100.0 12.8 12.8 16.2
   563 1100.0 12.8 12.8 16.2
   564 1100.0 12.8 12.8 16.2
   565 1100.0 12.8 12.8 16.2
   566 1100.0 12.8 12.8 16.2
   567 1100.0 12.8 12.8 16.2
   568 1100.0 12.8 12.8 16.2
   569 1100.0 12.8 12.8 16.2
   570 1100.0 12.8 12.8 16.2
   571 1100.0 12.8 12.8 16.2
   572 1100.0 12.8 12.8 16.2
   573 1100.0 12.8 12.8 16.2
   574 1100.0 12.8 12.8 16.2
   575 1100.0 12.8 12.8 16.2
   576 1100.0 12.8 12.8 16.2
   577 1100.0 12.8 12.8 16.2
   578 1100.0 12.8 12.8 16.2
   579 1100.0 12.8 12.8 16.2
   580 1100.0 12.8 12.8 16.2
   581 1100.0 12.8 12.8 16.2
   582 1100.0 12.8 12.8 16.2
   583 1100.0 12.8 12.8 16.2
   584 1100.0 12.8 12.8 16.2
   585 1100.0 12.8 12.8 16.2
   586 1100.0 12.8 12.8 16.2
   587 1100.0 12.8 12.8 16.2
   588 1100.0 12.8 12.8 16.2
   589 1100.0 12.8 12.8 16.2
   590 1100.0 12.8 12.8 16.2
   591 1100.0 12.8 12.8 16.2
   592 1100.0 12.8 12.8 16.2
   593 1100.0 12.8 12.8 16.2
   594 1100.0 12.8 12.8 16.2
   595 1100.0 12.8 12.8 16.2
   596 1100.0 12.8 12.8 16.2
   597 1100.0 12.8 12.8 16.2
   598 1100.0 12.8 12.8 16.2
   599 1100.0 12.8 12.8 16.2
   600 1100.0 12.8 12.8 16.2
   601 1100.0 12.8 12.8 16.2
   602 1100.0 12.8 12.8 16.2
   603 1100.0 12.8 12.8 16.2
   604 1100.0 12.8 12.8 16.2
   605 1100.0 12.8 12.8 16.2
   606 1100.0 12.8 12.8 16.2
   607 1100.0 12.8 12.8 16.2
   608 1100.0 12.8 12.8 16.2
   609 1100.0 12.8 12.8 16.2
   610 1100.0 12.8 12.8 16.2
   611 1100.0 12.8 12.8 16.2
   612 1100.0 12.8 12.8 16.2
   613 1100.0 12.8 12.8 16.2
   614 1100.0 12.8 12.8 16.2
   615 1100.0 12.8 12.8 16.2
   616 410.0 10.0 10.0 11.4
   617 410.0 10.0 10.0 11.4
   618 410.0 10.0 10.0 11.4
   619 410.0 10.0 10.0 11.4
   620 410.0 10.0 10.0 11.4
   621 410.0 10.0 10.0 11.4
   622 410.0 10.0 10.0 11.4
   623 410.0 10.0 10.0 11.4
   624 410.0 10.0 10.0 11.4
   625 410.0 10.0 10.0 11.4
   626 410.0 10.0 10.0 11.4
   627 410.0 10.0 10.0 11.4
   628 410.0 10.0 10.0 11.4
   629 410.0 10.0 10.0 11.4
   630 410.0 10.0 10.0 11.4
   631 410.0 10.0 10.0 11.4
   632 410.0 10.0 10.0 11.4
   633 410.0 10.0 10.0 11.4
   634 410.0 10.0 10.0 11.4
   635 410.0 10.0 10.0 11.4
   636 410.0 10.0 10.0 11.4
   637 410.0 10.0 10.0 11.4
   638 410.0 10.0 10.0 11.4
   639 410.0 10.0 10.0 11.4
   640 30.0 2.5 2.5 9.0
   641 30.0 2.5 2.5 9.0
   642 30.0 2.5 2.5 9.0
   643 30.0 2.5 2.5 9.0
   644 30.0 2.5 2.5 9.0
   645 30.0 2.5 2.5 9.0
   646 30.0 2.5 2.5 9.0
   647 30.0 2.5 2.5 9.0
   648 30.0 2.5 2.5 9.0
   649 30.0 2.5 2.5 9.0
   650 30.0 2.5 2.5 9.0
   651 30.0 2.5 2.5 9.0
   652 30.0 2.5 2.5 9.0
   653 30.0 2.5 2.5 9.0
   654 30.0 2.5 2.5 9.0
   655 30.0 2.5 2.5 9.0
   656 30.0 2.5 2.5 9.0
   657 30.0 2.5 2.5 9.0
   658 30.0 2.5 2.5 9.0
   659 30.0 2.5 2.5 9.0
   660 30.0 2.5 2.5 9.0
   661 30.0 2.5 2.5 9.0
   662 30.0 2.5 2.5 9.0
   663 30.0 2.5 2.5 9.0
   664 30.0 2.5 2.5 9.0
   665 30.0 2.5 2.5 9.0
   666 30.0 2.5 2.5 9.0
   667 30.0 2.5 2.5 9.0
   668 30.0 2.5 2.5 9.0
   669 30.0 2.5 2.5 9.0
   670 30.0 2.5 2.5 9.0
   671 30.0 2.5 2.5 9.0
   672 30.0 2.5 2.5 9.0
   673 30.0 2.5 2.5 9.0
   674 30.0 2.5 2.5 9.0
   675 30.0 2.5 2.5 9.0
   676 30.0 2.5 2.5 9.0
   677 30.0 2.5 2.5 9.0
   678 30.0 2.5 2.5 9.0
   679 30.0 2.5 2.5 9.0
   680 30.0 2.5 2.5 9.0
   681 30.0 2.5 2.5 9.0
   682 30.0 2.5 2.5 9.0
   683 30.0 2.5 2.5 9.0
   684 30.0 2.5 2.5 9.0
   685 30.0 2.5 2.5 9.0
   686 30.0 2.5 2.5 9.0
   687 30.0 2.5 2.5 9.0
   688 30.0 2.5 2.5 9.0
   689 30.0 2.5 2.5 9.0
   690 30.0 2.5 2.5 9.0
   691 30.0 2.5 2.5 9.0
   692 30.0 2.5 2.5 9.0
   693 30.0 2.5 2.5 9.0
   694 30.0 2.5 2.5 9.0
   695 30.0 2.5 2.5 9.0
   696 30.0 2.5 2.5 9.0
   697 30.0 2.5 2.5 9.0
   698 30.0 2.5 2.5 9.0
   699 30.0 2.5 2.5 9.0
   700 30.0 2.5 2.5 9.0
   701 30.0 2.5 2.5 9.0
   702 30.0 2.5 2.5 9.0
   703 30.0 2.5 2.5 9.0
   704 30.0 2.5 2.5 9.0
   705 30.0 2.5 2.5 9.0
   706 30.0 2.5 2.5 9.0
   707 30.0 2.5 2.5 9.0
   708 30.0 2.5 2.5 9.0
   709 30.0 2.5 2.5 9.0
   710 30.0 2.5 2.5 9.0
   711 30.0 2.5 2.5 9.0
   712 30.0 2.5 2.5 9.0
   713 30.0 2.5 2.5 9.0
   714 30.0 2.5 2.5 9.0
   715 30.0 2.5 2.5 9.0
   716 30.0 2.5 2.5 9.0
   717 30.0 2.5 2.5 9.0
   718 30.0 2.5 2.5 9.0
   719 30.0 2.5 2.5 9.0
   720 30.0 2.5 2.5 9.0
   721 30.0 2.5 2.5 9.0
   722 30.0 2.5 2.5 9.0
   723 30.0 2.5 2.5 9.0
   724 30.0 2.5 2.5 9.0
   725 30.0 2.5 2.5 9.0
   726 30.0 2.5 2.5 9.0
   727 30.0 2.5 2.5 9.0
   728 30.0 2.5 2.5 9.0
   729 30.0 2.5 2.5 9.0
   730 30.0 2.5 2.5 9.0
   731 30.0 2.5 2.5 9.0
   732 30.0 2.5 2.5 9.0
   733 30.0 2.5 2.5 9.0
   734 30.0 2.5 2.5 9.0
   735 30.0 2.5 2.5 9.0
   736 30.0 2.5 2.5 9.0
   737 30.0 2.5 2.5 9.0
   738 30.0 2.5 2.5 9.0
   739 30.0 2.5 2.5 9.0
   740 30.0 2.5 2.5 9.0
   741 30.0 2.5 2.5 9.0
   742 30.0 2.5 2.5 9.0
   743 30.0 2.5 2.5 9.0
   744 30.0 2.5 2.5 9.0
   745 30.0 2.5 2.5 9.0
   746 30.0 2.5 2.5 9.0
   747 30.0 2.5 2.5 9.0
   748 30.0 2.5 2.5 9.0
   749 30.0 2.5 2.5 9.0
   750 30.0 2.5 2.5 9.0
   751 30.0 2.5 2.5 9.0
   752 30.0 2.5 2.5 9.0
   753 30.0 2.5 2.5 9.0
   754 30.0 2.5 2.5 9.0
   755 30.0 2.5 2.5 9.0
   756 30.0 2.5 2.5 9.0
   757 30.0 2.5 2.5 9.0
   758 30.0 2.5 2.5 9.0
   759 30.0 2.5 2.5 9.0
   760 30.0 2.5 2.5 9.0
   761 30.0 2.5 2.5 9.0
   762 30.0 2.5 2.5 9.0
   763 30.0 2.5 2.5 9.0
   764 30.0 2.5 2.5 9.0
   765 30.0 2.5 2.5 9.0
   766 30.0 2.5 2.5 9.0
   767 30.0 2.5 2.5 9.0
   768 30.0 2.5 2.5 9.0
   769 30.0 2.5 2.5 9.0
   770 30.0 2.5 2.5 9.0
   771 30.0 2.5 2.5 9.0
   772 30.0 2.5 2.5 9.0
   773 30.0 2.5 2.5 9.0
   774 30.0 2.5 2.5 9.0
   775 30.0 2.5 2.5 9.0
   776 30.0 2.5 2.5 9.0
   777 30.0 2.5 2.5 9.0
   778 30.0 2.5 2.5 9.0
   779 30.0 2.5 2.5 9.0
   780 30.0 2.5 2.5 9.0
   781 30.0 2.5 2.5 9.0
   782 30.0 2.5 2.5 9.0
   783 30.0 2.5 2.5 9.0
   784 30.0 2.5 2.5 9.0
   785 30.0 2.5 2.5 9.0
   786 30.0 2.5 2.5 9.0
   787 30.0 2.5 2.5 9.0
   788 30.0 2.5 2.5 9.0
   789 30.0 2.5 2.5 9.0
   790 30.0 2.5 2.5 9.0
   791 30.0 2.5 2.5 9.0
   792 30.0 2.5 2.5 9.0
   793 30.0 2.5 2.5 9.0
   794 30.0 2.5 2.5 9.0
   795 30.0 2.5 2.5 9.0
   796 30.0 2.5 2.5 9.0
   797 30.0 2.5 2.5 9.0
   798 30.0 2.5 2.5 9.0
   799 30.0 2.5 2.5 9.0
   800 30.0 2.5 2.5 9.0
   801 30.0 2.5 2.5 9.0
   802 30.0 2.5 2.5 9.0
   803 30.0 2.5 2.5 9.0
   804 30.0 2.5 2.5 9.0
   805 30.0 2.5 2.5 9.0
   806 30.0 2.5 2.5 9.0
   807 30.0 2.5 2.5 9.0
   808 30.0 2.5 2.5 9.0
   809 30.0 2.5 2.5 9.0
   810 30.0 2.5 2.5 9.0
   811 30.0 2.5 2.5 9.0
   812 30.0 2.5 2.5 9.0
   813 30.0 2.5 2.5 9.0
   814 30.0 2.5 2.5 9.0
   815 30.0 2.5 2.5 9.0
   816 30.0 2.5 2.5 9.0
   817 30.0 2.5 2.5 9.0
   818 30.0 2.5 2.5 9.0
   819 30.0 2.5 2.5 9.0
   820 30.0 2.5 2.5 9.0
   821 30.0 2.5 2.5 9.0
   822 30.0 2.5 2.5 9.0
   823 30.0 2.5 2.5 9.0
   824 30.0 2.5 2.5 9.0
   825 30.0 2.5 2.5 9.0
   826 30.0 2.5 2.5 9.0
   827 30.0 2.5 2.5 9.0
   828 30.0 2.5 2.5 9.0
   829 30.0 2.5 2.5 9.0
   830 30.0 2.5 2.5 9.0
   831 30.0 2.5 2.5 9.0
   832 30.0 2.5 2.5 9.0
   833 30.0 2.5 2.5 9.0
   834 30.0 2.5 2.5 9.0
   835 30.0 2.5 2.5 9.0
   836 30.0 2.5 2.5 9.0
   837 30.0 2.5 2.5 9.0
   838 30.0 2.5 2.5 9.0
   839 30.0 2.5 2.5 9.0
   840 30.0 2.5 2.5 9.0
   841 30.0 2.5 2.5 9.0
   842 30.0 2.5 2.5 9.0
   843 30.0 2.5 2.5 9.0
   844 30.0 2.5 2.5 9.0
   845 30.0 2.5 2.5 9.0
   846 30.0 2.5 2.5 9.0
   847 30.0 2.5 2.5 9.0
   848 30.0 2.5 2.5 9.0
   849 30.0 2.5 2.5 9.0
   850 30.0 2.5 2.5 9.0
   851 30.0 2.5 2.5 9.0
   852 30.0 2.5 2.5 9.0
   853 30.0 2.5 2.5 9.0
   854 30.0 2.5 2.5 9.0
   855 30.0 2.5 2.5 9.0
   856 30.0 2.5 2.5 9.0
   857 30.0 2.5 2.5 9.0
   858 30.0 2.5 2.5 9.0
   859 30.0 2.5 2.5 9.0
   860 30.0 2.5 2.5 9.0
   861 30.0 2.5 2.5 9.0
   862 30.0 2.5 2.5 9.0
   863 30.0 2.5 2.5 9.0
   864 30.0 2.5 2.5 9.0
   865 30.0 2.5 2.5 9.0
   866 30.0 2.5 2.5 9.0
   867 30.0 2.5 2.5 9.0
   868 30.0 2.5 2.5 9.0
   869 30.0 2.5 2.5 9.0
   870 30.0 2.5 2.5 9.0
   871 30.0 2.5 2.5 9.0
   872 30.0 2.5 2.5 9.0
   873 30.0 2.5 2.5 9.0
   874 30.0 2.5 2.5 9.0
   875 30.0 2.5 2.5 9.0
   876 30.0 2.5 2.5 9.0
   877 30.0 2.5 2.5 9.0
   878 30.0 2.5 2.5 9.0
   879 30.0 2.5 2.5 9.0
   880 30.0 2.5 2.5 9.0
   881 30.0 2.5 2.5 9.0
   882 30.0 2.5 2.5 9.0
   883 30.0 2.5 2.5 9.0
   884 30.0 2.5 2.5 9.0
   885 30.0 2.5 2.5 9.0
   886 30.0 2.5 2.5 9.0
   887 30.0 2.5 2.5 9.0
   888 30.0 2.5 2.5 9.0
   889 30.0 2.5 2.5 9.0
   890 30.0 2.5 2.5 9.0
   891 30.0 2.5 2.5 9.0
   892 30.0 2.5 2.5 9.0
   893 30.0 2.5 2.5 9.0
   894 30.0 2.5 2.5 9.0
   895 30.0 2.5 2.5 9.0
   896 30.0 2.5 2.5 9.0
   897 30.0 2.5 2.5 9.0
   898 30.0 2.5 2.5 9.0
   899 30.0 2.5 2.5 9.0
   900 30.0 2.5 2.5 9.0
   901 30.0 2.5 2.5 9.0
   902 30.0 2.5 2.5 9.0
   903 30.0 2.5 2.5 9.0
   904 30.0 2.5 2.5 9.0
   905 30.0 2.5 2.5 9.0
   906 30.0 2.5 2.5 9.0
   907 30.0 2.5 2.5 9.0
   908 30.0 2.5 2.5 9.0
   909 30.0 2.5 2.5 9.0
   910 30.0 2.5 2.5 9.0
   911 30.0 2.5 2.5 9.0
   912 30.0 2.5 2.5 9.0
   913 30.0 2.5 2.5 9.0
   914 30.0 2.5 2.5 9.0
   915 30.0 2.5 2.5 9.0
   916 30.0 2.5 2.5 9.0
   917 30.0 2.5 2.5 9.0
   918 30.0 2.5 2.5 9.0
   919 30.0 2.5 2.5 9.0
   920 30.0 2.5 2.5 9.0
   921 30.0 2.5 2.5 9.0
   922 30.0 2.5 2.5 9.0
   923 30.0 2.5 2.5 9.0
   924 30.0 2.5 2.5 9.0
   925 30.0 2.5 2.5 9.0
   926 30.0 2.5 2.5 9.0
   927 30.0 2.5 2.5 9.0
   928 30.0 2.5 2.5 9.0
   929 30.0 2.5 2.5 9.0
   930 30.0 2.5 2.5 9.0
   931 30.0 2.5 2.5 9.0
   932 30.0 2.5 2.5 9.0
   933 30.0 2.5 2.5 9.0
   934 30.0 2.5 2.5 9.0
   935 30.0 2.5 2.5 9.0
   936 30.0 2.5 2.5 9.0
   937 30.0 2.5 2.5 9.0
   938 30.0 2.5 2.5 9.0
   939 30.0 2.5 2.5 9.0
   940 30.0 2.5 2.5 9.0
   941 30.0 2.5 2.5 9.0
   942 30.0 2.5 2.5 9.0
   943 30.0 2.5 2.5 9.0
   944 30.0 2.5 2.5 9.0
   945 30.0 2.5 2.5 9.0
   946 30.0 2.5 2.5 9.0
   947 30.0 2.5 2.5 9.0
   948 30.0 2.5 2.5 9.0
   949 30.0 2.5 2.5 9.0
   950 30.0 2.5 2.5 9.0
   951 30.0 2.5 2.5 9.0
   952 30.0 2.5 2.5 9.0
   953 30.0 2.5 2.5 9.0
   954 30.0 2.5 2.5 9.0
   955 30.0 2.5 2.5 9.0
   956 30.0 2.5 2.5 9.0
   957 30.0 2.5 2.5 9.0
   958 30.0 2.5 2.5 9.0
   959 30.0 2.5 2.5 9.0
   960 30.0 2.5 2.5 9.0
   961 30.0 2.5 2.5 9.0
   962 30.0 2.5 2.5 9.0
   963 30.0 2.5 2.5 9.0
   964 30.0 2.5 2.5 9.0
   965 30.0 2.5 2.5 9.0
   966 30.0 2.5 2.5 9.0
   967 30.0 2.5 2.5 9.0
   968 30.0 2.5 2.5 9.0
   969 30.0 2.5 2.5 9.0
   970 30.0 2.5 2.5 9.0
   971 30.0 2.5 2.5 9.0
   972 30.0 2.5 2.5 9.0
   973 30.0 2.5 2.5 9.0
   974 30.0 2.5 2.5 9.0
   975 30.0 2.5 2.5 9.0
   976 39.9 2.5 2.5 9.0
   977 39.9 2.5 2.5 9.0
   978 39.9 2.5 2.5 9.0
   979 39.9 2.5 2.5 9.0
   980 39.9 2.5 2.5 9.0
   981 39.9 2.5 2.5 9.0
   982 39.9 2.5 2.5 9.0
   983 39.9 2.5 2.5 9.0
   984 39.9 2.5 2.5 9.0
   985 39.9 2.5 2.5 9.0
   986 39.9 2.5 2.5 9.0
   987 39.9 2.5 2.5 9.0
   988 41.0 2.5 2.5 9.0
   989 41.0 2.5 2.5 9.0
   990 41.0 2.5 2.5 9.0
   991 41.0 2.5 2.5 9.0
   992 41.0 2.5 2.5 9.0
   993 41.0 2.5 2.5 9.0
   994 41.0 2.5 2.5 9.0
   995 41.0 2.5 2.5 9.0
   996 41.0 2.5 2.5 9.0
   997 41.0 2.5 2.5 9.0
   998 41.0 2.5 2.5 9.0
   999 41.0 2.5 2.5 9.0
   1000 41.0 2.5 2.5 9.0
   1001 41.0 2.5 2.5 9.0
   1002 41.0 2.5 2.5 9.0
   1003 41.0 2.5 2.5 9.0
   1004 41.0 2.5 2.5 9.0
   1005 41.0 2.5 2.5 9.0
   1006 41.0 2.5 2.5 9.0
   1007 41.0 2.5 2.5 9.0
   1008 41.0 2.5 2.5 9.0
   1009 41.0 2.5 2.5 9.0
   1010 41.0 2.5 2.5 9.0
   1011 41.0 2.5 2.5 9.0
   1012 41.0 2.5 2.5 9.0
   1013 41.0 2.5 2.5 9.0
   1014 41.0 2.5 2.5 9.0
   1015 41.0 2.5 2.5 9.0
   1016 41.0 2.5 2.5 9.0
   1017 41.0 2.5 2.5 9.0
   1018 41.0 2.5 2.5 9.0
   1019 41.0 2.5 2.5 9.0
   1020 41.0 2.5 2.5 9.0
   1021 41.0 2.5 2.5 9.0
   1022 41.0 2.5 2.5 9.0
   1023 41.0 2.5 2.5 9.0
   1024 41.0 2.5 2.5 9.0
   1025 41.0 2.5 2.5 9.0
   1026 41.0 2.5 2.5 9.0
   1027 41.0 2.5 2.5 9.0
   1028 41.0 2.5 2.5 9.0
   1029 41.0 2.5 2.5 9.0
   1030 41.0 2.5 2.5 9.0
   1031 41.0 2.5 2.5 9.0
   1032 41.0 2.5 2.5 9.0
   1033 41.0 2.5 2.5 9.0
   1034 41.0 2.5 2.5 9.0
   1035 41.0 2.5 2.5 9.0
   1036 41.0 2.5 2.5 9.0
   1037 41.0 2.5 2.5 9.0
   1038 41.0 2.5 2.5 9.0
   1039 41.0 2.5 2.5 9.0
   1040 41.0 2.5 2.5 9.0
   1041 41.0 2.5 2.5 9.0
   1042 41.0 2.5 2.5 9.0
   1043 41.0 2.5 2.5 9.0
   1044 41.0 2.5 2.5 9.0
   1045 41.0 2.5 2.5 9.0
   1046 41.0 2.5 2.5 9.0
   1047 41.0 2.5 2.5 9.0
   1048 41.0 2.5 2.5 9.0
   1049 41.0 2.5 2.5 9.0
   1050 41.0 2.5 2.5 9.0
   1051 41.0 2.5 2.5 9.0
   1052 41.0 2.5 2.5 9.0
   1053 41.0 2.5 2.5 9.0
   1054 41.0 2.5 2.5 9.0
   1055 41.0 2.5 2.5 9.0
   1056 41.0 2.5 2.5 9.0
   1057 41.0 2.5 2.5 9.0
   1058 41.0 2.5 2.5 9.0
   1059 41.0 2.5 2.5 9.0
   1060 41.0 2.5 2.5 9.0
   1061 41.0 2.5 2.5 9.0
   1062 41.0 2.5 2.5 9.0
   1063 41.0 2.5 2.5 9.0
   1064 41.0 2.5 2.5 9.0
   1065 41.0 2.5 2.5 9.0
   1066 41.0 2.5 2.5 9.0
   1067 41.0 2.5 2.5 9.0
   1068 41.0 2.5 2.5 9.0
   1069 41.0 2.5 2.5 9.0
   1070 41.0 2.5 2.5 9.0
   1071 41.0 2.5 2.5 9.0
   1072 41.0 2.5 2.5 9.0
   1073 41.0 2.5 2.5 9.0
   1074 41.0 2.5 2.5 9.0
   1075 41.0 2.5 2.5 9.0
   1076 41.0 2.5 2.5 9.0
   1077 41.0 2.5 2.5 9.0
   1078 41.0 2.5 2.5 9.0
   1079 41.0 2.5 2.5 9.0
   1080 41.0 2.5 2.5 9.0
   1081 41.0 2.5 2.5 9.0
   1082 41.0 2.5 2.5 9.0
   1083 41.0 2.5 2.5 9.0
   1084 41.0 2.5 2.5 9.0
   1085 41.0 2.5 2.5 9.0
   1086 41.0 2.5 2.5 9.0
   1087 41.0 2.5 2.5 9.0
   1088 41.0 2.5 2.5 9.0
   1089 41.0 2.5 2.5 9.0
   1090 41.0 2.5 2.5 9.0
   1091 41.0 2.5 2.5 9.0
   1092 41.0 2.5 2.5 9.0
   1093 41.0 2.5 2.5 9.0
   1094 41.0 2.5 2.5 9.0
   1095 41.0 2.5 2.5 9.0
   1096 41.0 2.5 2.5 9.0
   1097 41.0 2.5 2.5 9.0
   1098 41.0 2.5 2.5 9.0
   1099 41.0 2.5 2.5 9.0
   1100 41.0 2.5 2.5 9.0
   1101 41.0 2.5 2.5 9.0
   1102 41.0 2.5 2.5 9.0
   1103 41.0 2.5 2.5 9.0
   1104 41.0 2.5 2.5 9.0
   1105 41.0 2.5 2.5 9.0
   1106 41.0 2.5 2.5 9.0
   1107 41.0 2.5 2.5 9.0
   1108 41.0 2.5 2.5 9.0
   1109 41.0 2.5 2.5 9.0
   1110 41.0 2.5 2.5 9.0
   1111 41.0 2.5 2.5 9.0
   1112 41.0 2.5 2.5 9.0
   1113 41.0 2.5 2.5 9.0
   1114 41.0 2.5 2.5 9.0
   1115 41.0 2.5 2.5 9.0
   1116 41.0 2.5 2.5 9.0
   1117 41.0 2.5 2.5 9.0
   1118 41.0 2.5 2.5 9.0
   1119 41.0 2.5 2.5 9.0
   1120 41.0 2.5 2.5 9.0
   1121 41.0 2.5 2.5 9.0
   1122 41.0 2.5 2.5 9.0
   1123 41.0 2.5 2.5 9.0
   1124 41.0 2.5 2.5 9.0
   1125 41.0 2.5 2.5 9.0
   1126 41.0 2.5 2.5 9.0
   1127 41.0 2.5 2.5 9.0
   1128 41.0 2.5 2.5 9.0
   1129 41.0 2.5 2.5 9.0
   1130 41.0 2.5 2.5 9.0
   1131 41.0 2.5 2.5 9.0
   1132 41.0 2.5 2.5 9.0
   1133 41.0 2.5 2.5 9.0
   1134 41.0 2.5 2.5 9.0
   1135 41.0 2.5 2.5 9.0
   1136 41.0 2.5 2.5 9.0
   1137 41.0 2.5 2.5 9.0
   1138 41.0 2.5 2.5 9.0
   1139 41.0 2.5 2.5 9.0
   1140 41.0 2.5 2.5 9.0
   1141 41.0 2.5 2.5 9.0
   1142 41.0 2.5 2.5 9.0
   1143 41.0 2.5 2.5 9.0
   1144 41.0 2.5 2.5 9.0
   1145 41.0 2.5 2.5 9.0
   1146 41.0 2.5 2.5 9.0
   1147 41.0 2.5 2.5 9.0
   1148 41.0 2.5 2.5 9.0
   1149 41.0 2.5 2.5 9.0
   1150 41.0 2.5 2.5 9.0
   1151 41.0 2.5 2.5 9.0
   1152 41.0 2.5 2.5 9.0
   1153 41.0 2.5 2.5 9.0
   1154 41.0 2.5 2.5 9.0
   1155 41.0 2.5 2.5 9.0
;

set B :=
1 2 3 4 5 6 7 8 9 10 11 12 13 14 15 16 17 18 19 20 21 22 23 24 25 26 27 28 29 30 31 32 33 34 35 36 37 38 39 40
;

param: LB WB HB CB alpha :=
   1 28 15 15 6300 32
   2 28 15 15 6300 32
   3 28 15 15 6300 32
   4 28 15 15 6300 32
   5 28 15 15 6300 32
   6 28 15 15 6300 32
   7 28 15 15 6300 32
   8 28 15 15 6300 32
   9 28 15 15 6300 32
   10 28 15 15 6300 32
   11 42 32 26 34944 94
   12 42 32 26 34944 94
   13 42 32 26 34944 94
   14 42 32 26 34944 94
   15 42 32 26 34944 94
   16 42 32 26 34944 94
   17 42 32 26 34944 94
   18 42 32 26 34944 94
   19 42 32 26 34944 94
   20 42 32 26 34944 94
   21 45.7 45.7 40.6 84793 156
   22 45.7 45.7 40.6 84793 156
   23 45.7 45.7 40.6 84793 156
   24 45.7 45.7 40.6 84793 156
   25 45.7 45.7 40.6 84793 156
   26 45.7 45.7 40.6 84793 156
   27 45.7 45.7 40.6 84793 156
   28 45.7 45.7 40.6 84793 156
   29 45.7 45.7 40.6 84793 156
   30 45.7 45.7 40.6 84793 156
   31 61 46 61 171166 469
   32 61 46 61 171166 469
   33 61 46 61 171166 469
   34 61 46 61 171166 469
   35 61 46 61 171166 469
   36 61 46 61 171166 469
   37 61 46 61 171166 469
   38 61 46 61 171166 469
   39 61 46 61 171166 469
   40 61 46 61 171166 469
;


param M     := 1000000; #large constant
param alpha_supp := 1;# minimum percentage of its bottom face supported by other items' top faces
